4 
5  38 55 
6  10 25 40 55 
7  10 22 37 52 
8  07 22 37 52 
9  07 22 37 52 
10  07 22 37 52 
11  07 22 37 52 
12  07 22 37 52 
13  07 23 40 55 
14  10 25 40 55 
15  10 24 39 54 
16  09 24 39 54 
17  09 24 39 54 
18  09 24 39 54 
19  09 23 37 52 
20  07 24 39 54 
21  09 24 39 54 
22  09 24 39 54 
23  08 23 42 59 
0 
